PARAMETER_FILE = even/even_complete_graph_new/par/random156.par
PROBLEM_FILE = even/even_complete_graph_new/mat/random156.tsp
Successes/Runs = 0/10
Cost.min = 963, Cost.avg = 963.00, Cost.max = 963
Gap.min = 0.0000%, Gap.avg = 0.0000%, Gap.max = 0.0000%
Trials.min = 1000, Trials.avg = 1000.0, Trials.max = 1000
Time.min = 0.54 sec., Time.avg = 0.59 sec., Time.max = 0.68 sec.
Time.total = 6.05 sec.
